x = 15;
y = 17;
c = 63;
n = 30;

p = [70  23  72  39  90  62  16  66  91  92  50  81  62  37  59  86  46  57  48  85  61  32  98  27  43  50  50  47  95  65];
w = [7  9  7  10  7  7  4  3  4  2  8  7  10  2  10  7  10  6  7  4  8  7  8  9  8  5  10  9  3  8];
s = [8  11  3  8  2  15  7  4  3  15  1  12  13  2  1  15  7  14  11  13  1  9  10  7  15  8  6  10  11  12];
